c --- [ banner ] -------------------------------------------------------------
c 
c CaDiCaL Radically Simplified CDCL SAT Solver
c Copyright (c) 2016-2021 A. Biere, M. Fleury, N. Froleyks
c 
c Version 1.5.2 a5f15211db36c3956764e18194dd5bd63bf3b5e6
c g++ (GCC) 9.3.0 -Wall -Wextra -O3 -DNDEBUG
c Fri Oct 21 01:27:37 EDT 2022 Linux gra-login3 3.10.0-1160.66.1.el7.x86_64 x86_64
c 
c --- [ limit ] --------------------------------------------------------------
c 
c setting conflict limit to 200000 conflicts (due to '200000')
c 
c --- [ parsing input ] ------------------------------------------------------
c 
c reading DIMACS file from '45.cubes98.adj'
c opening file to read '45.cubes98.adj'
c found 'p cnf 6160 1595483' header
c parsed 1595483 clauses in 18.71 seconds process time
c closing file '45.cubes98.adj'
c after reading 1457566833 bytes 1390.0 MB
c 
c --- [ options ] ------------------------------------------------------------
c 
c all options are set to their default value
c 
c --- [ solving ] ------------------------------------------------------------
c 
c time measured in process time since initialization
c 
c  seconds    reductions  redundant   irredundant
c          MB     restarts       trail       variables
c            level   conflicts       glue         remaining
c 
c * 18.71 1393  0 0   0    0    0  0% 0 1595422 2213 36%
c { 20.53 1460  0 0   0    0    0  0% 0 1595422 2213 36%
c i 20.55 1462  1 0   0    1    0 14% 0 1595422 2202 36%
c i 22.40 1499 516 0   4   51   39 28% 5 1595422 2186 35%
c i 24.93 1527 352 0  10   81   65 29% 13 1595422 2177 35%
c i 27.41 1536 254 0  20  122   97 27% 15 1595422 2176 35%
c i 28.25 1540 233 0  24  142  115 27% 20 1595422 2167 35%
c i 28.86 1543 211 0  30  164  132 27% 23 1595422 2163 35%
c i 28.90 1543 209 0  30  166  133 27% 24 1595422 2162 35%
c i 29.80 1547 195 0  37  186  151 27% 23 1595422 2160 35%
c i 29.93 1548 191 0  38  197  156 27% 23 1595422 2158 35%
c i 32.30 1560 165 0  56  292  238 27% 35 1595422 2157 35%
c - 36.36 1535 161 1  56  300  244 27% 34 509715 2157 35%
c i 36.62 1475 156 1  56  313  256 27% 33 509715 2156 35%
c i 37.61 1476 121 1  63  475  398 28% 32 509715 2155 35%
c i 37.86 1476 71 1  63  989  830 29% 24 509715 2154 35%
c } 37.97 1476 71 1  63 1001  841 29% 24 509715 2154 35%
c [ 37.97 1476  0 1  63 1001  841  0% 0 509715 2154 35%
c O 38.03 1476  7 1  63 1002  842 19% 1 509715 2154 35%
c i 38.36 1476 25 1  63 1019  856 34% 19 509715 2153 35%
c 
c  seconds    reductions  redundant   irredundant
c          MB     restarts       trail       variables
c            level   conflicts       glue         remaining
c 
c i 38.38 1476 24 1  63 1021  857 34% 18 509715 2152 35%
c i 38.91 1477 48 1  63 1271 1064 31% 38 509715 2151 35%
c i 38.92 1477 47 1  63 1285 1077 31% 37 509715 2150 35%
c i 38.92 1477 47 1  63 1286 1077 31% 37 509715 2149 35%
c - 39.70 1567 46 2  63 1325 1009 31% 36 509691 2149 35%
c i 39.87 1567 44 2  63 1372 1048 31% 35 509691 2148 35%
c i 39.97 1567 38 2  63 1530 1162 31% 30 509691 2147 35%
c - 41.15 1567 28 3  64 2865 1597 31% 24 509685 2147 35%
c ] 41.57 1566 28 3  64 3002 1699 49% 24 509685 2147 35%
c { 41.57 1566 71 3  64 3002 1699 83% 24 509685 2147 35%
c F 41.58 1566 71 3  64 3003 1700 83% 24 509685 2147 35%
c i 41.69 1566 70 3  64 3016 1711 82% 24 509685 2146 35%
c i 42.18 1566 63 3  65 3295 1951 74% 23 509685 2145 35%
c i 42.94 1566 52 3  77 3957 2459 64% 23 509685 2144 35%
c i 44.66 1566 55 3 123 4146 2629 62% 24 509685 2143 35%
c i 46.03 1567 56 3 170 4360 2819 60% 25 509685 2142 35%
c - 48.36 1564 53 4 215 4913 2353 57% 25 509670 2142 35%
c d 49.04 1564 52 4 216 5000 2420 56% 25 477978 2137 35%
c 2 49.15 1564 52 4 216 5000 2979 56% 25 477978 2136 35%
c p 52.56 1564 52 4 216 5000 5142 56% 25 477978 2096 34%
c 
c  seconds    reductions  redundant   irredundant
c          MB     restarts       trail       variables
c            level   conflicts       glue         remaining
c 
c d 53.06 1564 52 4 216 5000 4666 56% 25 400318 2095 34%
c # 54.15 1564 45 4 225 6005 5435 54% 23 400318 2095 34%
c } 54.82 1564 40 4 225 7002 6172 52% 22 400318 2095 34%
c [ 54.82 1564 28 4 225 7002 6172 49% 24 400318 2095 34%
c - 55.30 1383 28 5 226 7473 3256 47% 23 400318 2095 34%
c I 56.84 1383 27 5 227 10008 4979 47% 24 400318 2095 34%
c - 58.35 1384 29 6 228 10357 3615 47% 24 400318 2095 34%
c - 64.40 1384 31 7 230 13722 4162 47% 25 400318 2095 34%
c p 67.87 1384 32 7 230 15000 7726 47% 27 400318 2095 34%
c ] 68.00 1384 32 7 230 15002 7728 47% 27 400318 2095 34%
c { 68.00 1384 40 7 230 15002 7728 52% 22 400318 2095 34%
c B 68.10 1384 40 7 232 15015 7739 52% 22 400318 2095 34%
c - 73.89 1384 38 8 411 17567 5266 50% 22 400318 2095 34%
c s 74.81 1384 35 8 416 18988 6152 49% 21 397768 2095 34%
c v 81.84 1384 35 8 416 18988 6152 49% 21 397739 2095 34%
c t 82.06 1384 35 8 416 18988 6124 49% 21 397736 2095 34%
c e 83.27 1385 35 8 416 18988 5801 49% 21 395645 840 14%
c s 83.41 1385 35 8 416 18988 5800 49% 21 393655 840 14%
c W 86.63 1385 32 8 424 21017 7071 66% 20 393655 840 14%
c - 90.89 1385 33 9 555 21895 5524 66% 21 393655 840 14%
c 
c  seconds    reductions    redundant   irredundant
c          MB      restarts        trail       variables
c            level     conflicts       glue        remaining
c 
c - 95.82 1387 28 10 592 26681 5915 67% 19 393655 840 14%
c F 96.59 1387 28 10 638 28018 6906 68% 18 393655 840 14%
c p 112.42 1387 29 10 925 30001 10194 67% 19 393655 840 14%
c } 118.39 1387 29 10 1087 31002 10993 67% 19 393655 840 14%
c [ 118.39 1387 32 10 1087 31002 10993 121% 27 393655 840 14%
c - 120.19 1387 31 11 1087 31946 7451 115% 26 393655 840 14%
c B 124.29 1387 27 11 1090 36019 10051 101% 23 393655 840 14%
c - 125.55 1387 32 12 1091 37692 7915 97% 26 393655 840 14%
c - 130.96 1387 41 13 1094 43913 8705 88% 33 393655 840 14%
c W 133.29 1387 42 13 1094 45020 9586 87% 34 393655 840 14%
c p 139.38 1387 40 13 1095 50002 14663 83% 33 393655 840 14%
c - 140.23 1387 40 14 1095 50612 8685 83% 33 393655 840 14%
c s 142.77 1387 38 14 1096 54478 11023 81% 32 391465 840 14%
c v 149.82 1387 38 14 1096 54478 11023 81% 32 391446 840 14%
c t 150.24 1387 38 14 1096 54478 11021 81% 32 391446 840 14%
c e 151.53 1390 38 14 1096 54478 11021 81% 32 391436 834 14%
c s 151.73 1390 38 14 1096 54478 11021 81% 32 389069 834 14%
c O 153.98 1390 38 14 1096 55021 11268 80% 32 389069 834 14%
c - 156.16 1390 37 15 1098 57790 8633 79% 31 389069 834 14%
c ] 158.71 1390 35 15 1102 63002 11591 77% 29 389069 834 14%
c 
c  seconds     reductions      redundant   irredundant
c           MB      restarts          trail       variables
c             level      conflicts        glue        remaining
c 
c { 158.71 1390 29 15 1102 63002 11591 67% 19 389069 834 14%
c - 160.01 1390 28 16 1112 65425 8470 67% 19 389069 834 14%
c B 160.28 1390 28 16 1112 66025 8847 66% 19 389069 834 14%
c - 179.08 1390 28 17 1635 73534 9923 67% 19 389069 834 14%
c p 186.53 1390 28 17 1745 75005 13202 66% 19 389069 834 14%
c W 189.17 1390 27 17 1762 78027 15212 66% 19 389069 834 14%
c - 191.46 1390 26 18 1787 82121 10914 66% 19 389069 834 14%
c # 194.91 1390 24 18 1849 91029 16361 65% 18 389069 834 14%
c - 195.89 1390 24 19 1854 91184 11485 65% 18 389069 834 14%
c - 206.26 1390 23 20 2062 100724 11797 66% 17 389069 834 14%
c p 213.51 1390 22 20 2129 105005 16469 66% 17 389069 834 14%
c B 213.94 1390 22 20 2129 105030 16488 66% 17 389069 834 14%
c - 225.69 1390 22 21 2336 110741 12988 66% 17 389069 834 14%
c W 240.45 1390 21 21 2570 120031 18773 66% 16 389069 834 14%
c - 246.16 1390 21 22 2792 121235 13942 66% 16 389069 834 14%
c } 254.84 1390 21 22 3094 127003 17519 66% 16 389069 834 14%
c [ 254.84 1390 35 22 3094 127003 17519 77% 29 389069 834 14%
c - 257.64 1390 32 23 3096 132207 14244 76% 27 389069 834 14%
c B 260.37 1390 31 23 3098 136033 16634 75% 26 389069 834 14%
c p 265.37 1390 31 23 3101 140005 21696 74% 26 389069 834 14%
c 
c  seconds     reductions       redundant   irredundant
c           MB      restarts           trail       variables
c             level      conflicts         glue        remaining
c 
c - 268.09 1390 31 24 3102 143655 15648 74% 27 389069 834 14%
c W 274.79 1390 33 24 3103 153034 21763 72% 28 389069 834 14%
c - 275.87 1390 33 25 3103 155582 15847 72% 28 389069 834 14%
c - 280.60 1390 35 26 3103 167986 16522 70% 30 389069 834 14%
c I 282.06 1390 36 26 3106 171037 18643 70% 31 389069 834 14%
c p 295.40 1390 35 26 3110 180007 27528 69% 30 389069 834 14%
c - 297.21 1390 35 27 3110 180866 17619 69% 30 389069 834 14%
c B 306.97 1390 34 27 3117 190039 23583 69% 29 389069 834 14%
c - 313.87 1390 34 28 3118 194224 18085 69% 29 389069 834 14%
c ] 322.67 1390 33 28 3118 200001 22222 69% 29 389069 834 14%
c ? 322.67 1390 33 28 3118 200001 22222 69% 29 389069 834 14%
c 
c --- [ writing output ] -----------------------------------------------------
c 
c writing simplified CNF to DIMACS file 'simp/45.cubes98.adj.simp1'
c * 322.67 1390 33 28 3118 200001 22222 69% 29 389069 834 14%
c opening file to write 'simp/45.cubes98.adj.simp1'
c writing 'p cnf 6160 389069' header
c closing file 'simp/45.cubes98.adj.simp1'
c after writing 162567422 bytes 155.0 MB
c wrote 389069 clauses in 1.41 seconds process time
c 
c --- [ writing extension ] --------------------------------------------------
c 
c writing extension stack to 'simp/45.cubes98.adj.ext1'
c opening file to write 'simp/45.cubes98.adj.ext1'
c closing file 'simp/45.cubes98.adj.ext1'
c after writing 83913 bytes 0.1 MB
c wrote 3809 witnesses in 0.58 seconds process time
c 
c --- [ result ] -------------------------------------------------------------
c 
c UNKNOWN
c 
c --- [ run-time profiling ] -------------------------------------------------
c 
c process time taken by individual solving procedures
c (percentage relative to process time for solving)
c 
c       261.24   85.94% search
c       150.90   49.65% unstable
c       102.72   33.79% stable
c        42.72   14.06% simplify
c        20.52    6.75% probe
c        18.71    6.15% parse
c        14.62    4.81% vivify
c         5.79    1.91% walk
c         4.84    1.59% elim
c         1.82    0.60% lucky
c         0.67    0.22% subsume
c         0.45    0.15% ternary
c   =================================
c       303.96   93.63% solve
c 
c last line shows process time for solving
c (percentage relative to total process time)
c 
c --- [ statistics ] ---------------------------------------------------------
c 
c chronological:             32849        16.42 %  of conflicts
c conflicts:                200001       657.99    per second
c decisions:                353362      1162.54    per second
c eliminated:                 1261        20.47 %  of all variables
c fixed:                       915        14.85 %  of all variables
c learned:                  195948        97.97 %  per conflict
c learned_lits:           30953454       100.00 %  learned literals
c minimized:                     0         0.00 %  learned literals
c shrunken:               19465848        62.89 %  learned literals
c minishrunken:            2181558         7.05 %  learned literals
c propagations:           14042199         0.05 M  per second
c reduced:                  110068        55.03 %  per conflict
c rephased:                     19     10526.37    interval
c restarts:                   3118        64.14    interval
c stabilizing:                   4        57.50 %  of conflicts
c substituted:                   6         0.10 %  of all variables
c subsumed:                  72532         1.95 %  of all clauses
c strengthened:               6583         0.18 %  of all clauses
c ternary:                    4400         0.73 %  of resolved
c vivified:                     64         0.00 %  of all clauses
c walked:                        5     40000.20    interval
c weakened:                   2894         3.06    average size
c 
c seconds are measured in process time for solving
c 
c --- [ resources ] ----------------------------------------------------------
c 
c total process time since initialization:       324.65    seconds
c total real time since initialization:         2001.07    seconds
c maximum resident set size of process:         1752.61    MB
c 
c --- [ shutting down ] ------------------------------------------------------
c 
c exit 0
WARNING! DIMACS header mismatch: wrong number of variables.
============================[ Problem Statistics ]=============================
|                                                                             |
|  Number of variables:          3757                                         |
|  Number of clauses:          389073                                         |
|  Parse time:                   2.21 s                                       |
|  Simplification time:          0.07 s                                       |
|                                                                             |
============================[ Search Statistics ]====================================================
| Conflicts |          ORIGINAL         |          LEARNT          | Num Sols |      SUBGRAPHS      |
|           |    Vars  Clauses Literals |    Limit  Clauses Lit/Cl |          | Canonical Noncanon. |
=====================================================================================================
|       100 |    3655   389073 35181112 |     2000      100    127 |        0 |        11         0 |
|       427 |    3655   389250 35183451 |     2000      427     62 |        0 |        43       177 |
|       655 |    3655   389253 35183722 |     2000      655     69 |        0 |        49       180 |
|      1005 |    3655   389266 35183976 |     2000     1005     70 |        0 |        61       193 |
|      1527 |    3655   389282 35184195 |     2000     1527     75 |        0 |        80       209 |
|      2462 |    3655   389458 35186648 |     3600     1462     54 |        0 |       144       385 |
|      3646 |    3655   389503 35187371 |     3600     2646     77 |        0 |       165       430 |
|      5365 |    3655   389514 35187552 |     5001     2566     50 |        0 |       167       441 |
|      7990 |    3655   389577 35188497 |     6304     2694     43 |        0 |       173       504 |
|     11959 |    3655   389702 35190899 |     7552     3511     43 |        0 |       222       629 |
|     17846 |    3655   389823 35192978 |     8783     5629     58 |        0 |       266       750 |
|     26711 |    3655   390039 35196666 |    11204     5115     32 |        0 |       369       966 |
|     40175 |    3655   390529 35203715 |    13610     6785     30 |        0 |       561      1456 |
|     59976 |    3655   390869 35210129 |    16006    12382     54 |        0 |       677      1796 |
|     89463 |    3655   391164 35214324 |    19607    16070     56 |        0 |       796      2091 |
|    133518 |    3655   391430 35218492 |    24409    17327     51 |        0 |       961      2357 |
|    199302 |    3655   391530 35220931 |    30415    16117     42 |        0 |      1056      2457 |
|    299481 |    3655   393183 35249852 |    36418    34299     66 |        0 |      1556      4110 |
|    447904 |    3655   393817 35264923 |    44817    42721     64 |        0 |      1839      4744 |
|    674112 |    3655   398342 35341573 |    55610    45722     58 |        0 |      3007      9269 |
|   1010397 |    3655   402102 35411897 |    68818    43215     44 |        0 |      4187     13029 |
|   1517111 |    3655   410028 35560430 |    84414    55925     44 |        0 |      6478     20955 |
|   2271633 |    3655   416368 35694484 |   103616    63249     38 |        0 |      8222     27295 |
|   3398570 |    3649   415856 35694861 |   126297   103267     52 |        0 |      9990     31958 |
|   5085776 |    3649   419651 35785399 |   155218   108194     48 |        0 |     11232     35753 |
|   7615535 |    3648   424291 35896762 |   190014   143867     50 |        0 |     13074     40396 |
|  11408967 |    3633   408331 34206355 |   233217   139384     38 |        0 |     14881     46153 |
|  17095806 |    3532   244631 23162543 |   235773   221578     56 |        0 |     16465     51480 |
=====================================================================================================
Number of solutions   : 0
Canonical subgraphs   : 16475          (7 /sec)
          order  3    : 1              (111111 /sec)
          order  4    : 1              (500000 /sec)
          order  5    : 1              (166667 /sec)
          order  6    : 1              (40000 /sec)
          order  7    : 1              (6289 /sec)
          order  8    : 1              (743 /sec)
          order  9    : 2              (125 /sec)
          order 10    : 7              (37 /sec)
          order 11    : 34             (12 /sec)
          order 12    : 300            (5 /sec)
          order 13    : 1309           (4 /sec)
          order 14    : 5426           (7 /sec)
          order 15    : 8251           (8 /sec)
          order 16    : 1136           (7 /sec)
          order 17    : 4              (4 /sec)
          order 18    : 0              (-nan /sec)
          order 19    : 0              (-nan /sec)
          order 20    : 0              (-nan /sec)
          order 21    : 0              (-nan /sec)
          order 22    : 0              (-nan /sec)
Noncanonical subgraphs: 51525          (1406 /sec)
          order  3    : 0              (-nan /sec)
          order  4    : 0              (-nan /sec)
          order  5    : 0              (-nan /sec)
          order  6    : 0              (-nan /sec)
          order  7    : 0              (-nan /sec)
          order  8    : 0              (-nan /sec)
          order  9    : 0              (-nan /sec)
          order 10    : 0              (-nan /sec)
          order 11    : 0              (-nan /sec)
          order 12    : 0              (-nan /sec)
          order 13    : 4999           (8239 /sec)
          order 14    : 25558          (2914 /sec)
          order 15    : 18732          (2597 /sec)
          order 16    : 1423           (438 /sec)
          order 17    : 811            (49 /sec)
          order 18    : 2              (16 /sec)
          order 19    : 0              (-nan /sec)
          order 20    : 0              (-nan /sec)
          order 21    : 0              (-nan /sec)
Canonicity checking   : 2326.02 s
Noncanonicity checking: 36.6469 s
Total canonicity time : 2362.66 s
database reductions   : 236
restarts              : 25340
conflicts             : 17153131       (1584 /sec)
decisions             : 21451003       (0.00 % random) (1981 /sec)
propagations          : 925432952      (85467 /sec)
conflict literals     : 1428611326     (57.66 % deleted)
actual reward         : 0.241864
Memory used           : 627.00 MB
CPU time              : 10827.9 s

UNSATISFIABLE
